#=======================================================
# FHI-aims file: /Users/haoran/Downloads/interface_6_cleaved.in
# Created using the Atomic Simulation Environment (ASE)
# Wed Jun 19 16:40:37 2024
#=======================================================
lattice_vector 15.2596000000000007 0.0000000000000000 0.0000000000000000 
lattice_vector -7.6297999999999968 13.2152012515890220 0.0000000000000000 
lattice_vector 0.0000000000000000 0.0000000000000000 65.5225999999999971 
atom 13.0796135440000025 1.8879236508020074 39.4183961600000004 Au
atom 11.4446237020000012 2.2025775926023425 37.0635139160000051 Au
atom 10.8997033860000023 3.7757151495914996 39.4183961600000004 Au
atom 9.2647898420000008 4.0905012434043506 37.0635139160000051 Au
atom 10.3547830699999999 0.9439618254010037 39.4183961600000004 Au
atom 8.7197932280000003 1.2586157672013385 37.0635139160000051 Au
atom 9.2647135440000046 8.4955242765965178 39.4183961600000004 Au
atom 7.6297237020000033 8.8101782183968531 37.0635139160000051 Au
atom 8.7197169300000024 5.6636388003935076 39.4183961600000004 Au
atom 7.0848796840000023 5.9782927421938421 37.0635139160000051 Au
atom 8.1747966139999999 2.8318854762030115 39.4183961600000004 Au
atom 6.5398067720000013 3.1465394180033464 37.0635139160000051 Au
atom 7.6298000000000004 0.0000000000000000 39.4183961600000004 Au
atom 5.9948101580000008 0.3146539418003346 37.0635139160000051 Au
atom 7.0848033860000035 10.3833157753860110 39.4183961600000004 Au
atom 5.4497372460000033 10.6981018691988599 37.0635139160000051 Au
atom 6.5398830700000019 7.5515624511955144 39.4183961600000004 Au
atom 4.9048932280000015 7.8662163929958497 37.0635139160000051 Au
atom 5.9948864560000015 4.7196769749925034 39.4183961600000004 Au
atom 4.3598966140000019 5.0343309167928378 37.0635139160000051 Au
atom 5.4498135440000013 1.8879236508020074 39.4183961600000004 Au
atom 3.8148237020000013 2.2025775926023425 37.0635139160000051 Au
atom 4.9048169300000044 12.2712394261880178 39.4183961600000004 Au
atom 3.2699796840000035 12.5858933679883531 37.0635139160000051 Au
atom 4.3598966140000019 9.4394861019975220 39.4183961600000004 Au
atom 2.7249067720000033 9.7541400437978574 37.0635139160000051 Au
atom 3.8149000000000020 6.6076006257945110 39.4183961600000004 Au
atom 2.1799101580000024 6.9222545675948455 37.0635139160000051 Au
atom 3.2699033860000011 3.7757151495914996 39.4183961600000004 Au
atom 1.6348372460000016 4.0905012434043506 37.0635139160000051 Au
atom 2.7249830700000008 0.9439618254010037 39.4183961600000004 Au
atom 1.0899932280000002 1.2586157672013385 37.0635139160000051 Au
atom 2.1799864560000031 11.3272776007870153 39.4183961600000004 Au
atom 0.5449966140000034 11.6419315425873489 37.0635139160000051 Au
atom 1.6349135440000024 8.4955242765965178 39.4183961600000004 Au
atom -0.0000762979999971 8.8101782183968531 37.0635139160000051 Au
atom 1.0899169300000018 5.6636388003935076 39.4183961600000004 Au
atom -0.5449203159999984 5.9782927421938421 37.0635139160000051 Au
atom 0.5449966140000005 2.8318854762030115 39.4183961600000004 Au
atom -1.0899932279999993 3.1465394180033464 37.0635139160000051 Au
atom 0.0000000000000000 0.0000000000000000 39.4183961600000004 Au
atom 13.6246101579999994 0.3146539418003346 37.0635139160000051 Au
atom -0.5449966139999972 10.3833157753860110 39.4183961600000004 Au
atom -2.1800627539999966 10.6981018691988599 37.0635139160000051 Au
atom -1.0899169299999978 7.5515624511955144 39.4183961600000004 Au
atom -2.7249067719999980 7.8662163929958497 37.0635139160000051 Au
atom -1.6349135439999989 4.7196769749925034 39.4183961600000004 Au
atom 11.9896966140000014 5.0343309167928378 37.0635139160000051 Au
atom -2.7249830699999968 12.2712394261880178 39.4183961600000004 Au
atom -4.3598203159999969 12.5858933679883531 37.0635139160000051 Au
atom -3.2699033859999975 9.4394861019975220 39.4183961600000004 Au
atom -4.9048932279999971 9.7541400437978574 37.0635139160000051 Au
atom -3.8148999999999984 6.6076006257945110 39.4183961600000004 Au
atom 9.8097101580000015 6.9222545675948455 37.0635139160000051 Au
atom -5.4498135439999977 11.3272776007870153 39.4183961600000004 Au
atom 8.1747966140000035 11.6419315425873489 37.0635139160000051 Au
atom 10.8160044800000019 5.5205181708387983 42.9959301199999970 C
atom 10.8160044800000019 5.5205181708387983 44.3791122059999950 C
atom 10.0142650960000026 6.4344814893986948 42.2568351920000040 C
atom 11.6177438640000013 4.6065548522789017 42.2568351920000040 C
atom 11.6175912680000017 4.6065548522789017 45.1182071340000022 C
atom 10.0143413940000023 6.4346136414112109 45.1182071340000022 C
atom -0.6287718179999970 12.1282509486458245 42.9959301199999970 C
atom -0.6287718179999970 12.1282509486458245 44.3791122059999950 C
atom -1.0193412799999975 10.9768104635948731 42.2568351920000040 C
atom 7.3917502400000004 0.0642258780827226 42.2568351920000040 C
atom 7.3919028360000008 0.0642258780827226 45.1182071340000022 C
atom -1.0194938759999979 10.9768104635948731 45.1182071340000022 C
atom 7.0010281820000042 12.1282509486458245 42.9959301199999970 C
atom 7.0010281820000042 12.1282509486458245 44.3791122059999950 C
atom -7.0661103759999966 12.3654638111118480 42.2568351920000040 C
atom 5.8087193360000029 11.8907737821547705 42.2568351920000040 C
atom 5.8085667400000025 11.8910380861798028 45.1182071340000022 C
atom -7.0661103759999966 12.3654638111118480 45.1182071340000022 C
atom 9.3602386400000039 7.1792902319382517 41.6350257180000014 N
atom 12.2716940220000019 3.8618782617518597 41.6350257180000014 N
atom 12.2709310420000008 3.8613496537017964 45.7400166079999977 N
atom 9.3610779180000030 7.1796866879758001 45.7400166079999977 N
atom -1.3371987479999983 10.0382668707070213 41.6350257180000014 N
atom 7.7096077080000001 1.0030337749956066 41.6350257180000014 N
atom 7.7104469860000018 1.0026373189580593 45.7400166079999977 N
atom -1.3381143239999969 10.0385311747320518 45.7400166079999977 N
atom -6.0943027499999971 12.5595951174976896 41.6350257180000014 N
atom 4.8367591140000039 11.6969067797939594 41.6350257180000014 N
atom 4.8367591140000021 11.6976996918690546 45.7400166079999977 N
atom -6.0941501539999967 12.5585379013975640 45.7400166079999977 N
